77      4       
10      10      10      10      
0       0       0       0       0       11      2       3       4       5       6       8       9       10      11      12      19      
9       1       1       1       1       6       7       14      15      16      18      26      
5       3       0       4       1       7       13      15      20      22      23      26      33      
10      4       4       1       4       7       17      18      21      22      26      27      28      
8       3       0       4       1       7       17      20      22      26      27      28      33      
4       2       1       2       2       5       15      22      26      28      33      
6       2       3       5       2       6       17      21      22      23      28      33      
9       3       2       2       3       6       17      21      22      26      27      28      
7       0       1       2       4       4       15      22      23      33      
8       5       2       3       3       3       15      18      23      
2       2       2       3       4       3       15      23      33      
6       1       1       4       2       4       17      21      26      28      
4       1       3       3       3       6       21      24      25      27      28      29      
5       4       3       1       3       5       21      22      24      25      28      
3       4       2       1       0       2       17      21      
7       3       2       4       3       3       22      24      25      
4       0       3       2       0       4       24      25      29      31      
4       4       3       2       3       4       24      25      31      33      
4       3       0       5       2       4       24      25      26      29      
6       1       4       3       2       4       25      29      30      31      
7       0       5       2       5       6       30      31      32      35      37      39      
5       3       2       4       3       6       29      31      34      37      38      39      
3       1       1       3       2       4       29      30      35      37      
9       4       2       2       2       5       30      32      37      39      45      
7       2       1       2       2       5       32      35      37      39      45      
3       0       6       3       3       5       32      37      39      45      48      
9       1       4       4       2       5       32      34      35      43      45      
4       2       3       2       2       4       31      34      36      39      
7       1       1       3       2       4       32      43      45      48      
10      1       3       3       0       5       34      38      43      47      50      
9       3       4       2       2       8       41      42      43      44      45      47      48      50      
4       2       1       4       1       5       36      41      46      47      50      
7       8       5       0       0       4       36      43      47      48      
1       2       2       3       6       4       40      42      46      48      
8       4       3       1       3       5       42      44      46      47      49      
4       2       3       4       2       2       40      42      
2       2       4       0       1       4       43      47      53      54      
6       2       2       2       1       4       44      49      53      58      
9       3       3       1       3       4       47      49      53      58      
9       5       0       1       2       3       44      49      58      
10      3       2       1       3       5       49      52      54      57      58      
9       1       2       4       1       5       52      53      54      58      59      
7       2       4       5       2       2       46      51      
6       2       3       4       4       5       52      54      57      59      65      
7       1       2       1       2       4       51      53      55      56      
6       1       1       4       3       5       52      57      58      62      65      
2       1       2       1       2       4       52      57      59      62      
9       2       3       2       2       3       52      54      65      
2       2       3       5       5       4       51      56      61      76      
1       5       3       2       2       4       52      59      62      65      
10      2       5       2       0       10      59      62      63      64      65      66      67      73      74      75      
8       2       3       0       3       5       55      56      63      64      75      
5       2       2       2       2       8       57      62      63      65      66      71      74      75      
1       3       1       4       2       5       56      61      62      66      76      
2       5       0       2       4       7       60      61      66      70      71      72      73      
5       4       3       4       1       6       60      67      70      72      73      74      
7       3       3       2       1       4       60      61      70      76      
10      3       2       2       1       5       68      69      71      72      73      
4       2       3       1       3       2       60      70      
7       1       2       3       3       2       68      69      
3       1       3       3       2       2       68      69      
8       4       1       1       3       2       68      70      
10      1       4       3       2       2       68      72      
4       1       1       3       1       2       68      69      
7       0       0       3       7       2       68      69      
8       2       5       0       4       1       68      
8       3       2       2       2       1       71      
8       3       0       0       3       1       77      
6       3       2       0       2       1       77      
3       3       4       2       3       1       77      
6       3       3       2       2       1       77      
6       6       0       2       4       1       77      
5       2       3       4       3       1       77      
2       3       2       2       2       1       77      
6       2       2       2       2       1       77      
5       2       2       1       4       1       77      
0       0       0       0       0       0       
